50
120
99
96
96
96
95
95
94
90
90
88
87
84
82
78
77
77
77
75
75
70
70
69
68
56
54
53
53
50
50
49
48
47
45
38
36
35
34
28
25
21
19
18
16
13
13
7
7
6
3
3
